67
0 27 25 3 23 10 48 55 24 34 
60 53 18 35 40 31 13 59 11 26 
9 15 22 6 12 7 42 36 2 37 
38 30 45 8 44 62 57 58 33 39 
63 61 4 19 65 54 41 50 46 28 
21 52 1 29 51 47 16 20 43 14 
5 64 56 49 66 32 17 
